p cnf 204 864
90 93 113 117 0
95 105 142 0
64 84 110 0
54 82 88 0
112 118 0
123 146 0
121 128 0
131 133 137 157 0
60 89 115 126 140 0
77 80 144 0
70 73 76 0
72 130 166 0
81 87 98 0
91 92 0
66 108 0
61 63 0
53 57 58 0
74 78 179 0
51 68 0
50 136 0
48 55 103 147 149 0
193 195 0
67 150 151 152 0
154 155 158 0
85 159 161 164 0
165 201 0
167 168 171 0
99 172 0
49 104 0
97 107 175 0
62 65 132 156 0
71 79 86 177 180 0
135 181 182 0
100 183 184 186 0
102 187 0
124 148 188 0
120 129 189 0
190 191 192 194 0
153 196 197 0
198 199 0
145 200 202 0
143 178 0
-146 -169 0
-121 -169 0
-121 -146 0
-50 -185 0
-50 -55 0
-55 -185 0
-79 -135 0
-79 -183 0
-135 -183 0
-50 -169 0
-79 -169 0
-50 -79 0
-146 -185 0
-135 -146 0
-135 -185 0
-55 -121 0
-121 -183 0
-55 -183 0
-90 -204 0
-90 -105 0
-64 -90 0
-90 -176 0
-105 -204 0
-64 -204 0
-176 -204 0
-64 -105 0
-105 -176 0
-64 -176 0
-131 -160 0
-115 -131 0
-131 -144 0
-98 -131 0
-115 -160 0
-144 -160 0
-98 -160 0
-115 -144 0
-98 -115 0
-98 -144 0
-150 -154 0
-150 -159 0
-47 -150 0
-150 -167 0
-154 -159 0
-47 -154 0
-154 -167 0
-47 -159 0
-159 -167 0
-47 -167 0
-45 -46 0
-46 -86 0
-46 -181 0
-46 -120 0
-45 -86 0
-45 -181 0
-45 -120 0
-86 -181 0
-86 -120 0
-120 -181 0
-190 -196 0
-190 -198 0
-44 -190 0
-43 -190 0
-196 -198 0
-44 -196 0
-43 -196 0
-44 -198 0
-43 -198 0
-43 -44 0
-90 -131 0
-90 -150 0
-46 -90 0
-90 -190 0
-131 -150 0
-46 -131 0
-131 -190 0
-46 -150 0
-150 -190 0
-46 -190 0
-160 -204 0
-154 -204 0
-45 -204 0
-196 -204 0
-154 -160 0
-45 -160 0
-160 -196 0
-45 -154 0
-154 -196 0
-45 -196 0
-105 -115 0
-105 -159 0
-86 -105 0
-105 -198 0
-115 -159 0
-86 -115 0
-115 -198 0
-86 -159 0
-159 -198 0
-86 -198 0
-64 -144 0
-47 -64 0
-64 -181 0
-44 -64 0
-47 -144 0
-144 -181 0
-44 -144 0
-47 -181 0
-44 -47 0
-44 -181 0
-98 -176 0
-167 -176 0
-120 -176 0
-43 -176 0
-98 -167 0
-98 -120 0
-43 -98 0
-120 -167 0
-43 -167 0
-43 -120 0
-93 -174 0
-93 -95 0
-42 -93 0
-93 -112 0
-95 -174 0
-42 -174 0
-112 -174 0
-42 -95 0
-95 -112 0
-42 -112 0
-157 -163 0
-60 -157 0
-76 -157 0
-157 -170 0
-60 -163 0
-76 -163 0
-163 -170 0
-60 -76 0
-60 -170 0
-76 -170 0
-151 -155 0
-85 -151 0
-151 -165 0
-40 -151 0
-85 -155 0
-155 -165 0
-40 -155 0
-85 -165 0
-40 -85 0
-40 -165 0
-39 -52 0
-52 -177 0
-52 -184 0
-52 -188 0
-39 -177 0
-39 -184 0
-39 -188 0
-177 -184 0
-177 -188 0
-184 -188 0
-191 -197 0
-191 -199 0
-114 -191 0
-143 -191 0
-197 -199 0
-114 -197 0
-143 -197 0
-114 -199 0
-143 -199 0
-114 -143 0
-93 -157 0
-93 -151 0
-52 -93 0
-93 -191 0
-151 -157 0
-52 -157 0
-157 -191 0
-52 -151 0
-151 -191 0
-52 -191 0
-163 -174 0
-155 -174 0
-39 -174 0
-174 -197 0
-155 -163 0
-39 -163 0
-163 -197 0
-39 -155 0
-155 -197 0
-39 -197 0
-60 -95 0
-85 -95 0
-95 -177 0
-95 -199 0
-60 -85 0
-60 -177 0
-60 -199 0
-85 -177 0
-85 -199 0
-177 -199 0
-42 -76 0
-42 -165 0
-42 -184 0
-42 -114 0
-76 -165 0
-76 -184 0
-76 -114 0
-165 -184 0
-114 -165 0
-114 -184 0
-112 -170 0
-40 -112 0
-112 -188 0
-112 -143 0
-40 -170 0
-170 -188 0
-143 -170 0
-40 -188 0
-40 -143 0
-143 -188 0
-38 -108 0
-38 -63 0
-37 -38 0
-38 -58 0
-36 -38 0
-63 -108 0
-37 -108 0
-58 -108 0
-36 -108 0
-37 -63 0
-58 -63 0
-36 -63 0
-37 -58 0
-36 -37 0
-36 -58 0
-35 -74 0
-48 -74 0
-34 -74 0
-33 -74 0
-74 -193 0
-35 -48 0
-34 -35 0
-33 -35 0
-35 -193 0
-34 -48 0
-33 -48 0
-48 -193 0
-33 -34 0
-34 -193 0
-33 -193 0
-139 -152 0
-152 -201 0
-32 -152 0
-31 -152 0
-152 -168 0
-139 -201 0
-32 -139 0
-31 -139 0
-139 -168 0
-32 -201 0
-31 -201 0
-168 -201 0
-31 -32 0
-32 -168 0
-31 -168 0
-99 -175 0
-94 -99 0
-99 -156 0
-30 -99 0
-41 -99 0
-94 -175 0
-156 -175 0
-30 -175 0
-41 -175 0
-94 -156 0
-30 -94 0
-41 -94 0
-30 -156 0
-41 -156 0
-30 -41 0
-29 -182 0
-29 -186 0
-29 -187 0
-29 -124 0
-29 -129 0
-182 -186 0
-182 -187 0
-124 -182 0
-129 -182 0
-186 -187 0
-124 -186 0
-129 -186 0
-124 -187 0
-129 -187 0
-124 -129 0
-162 -192 0
-59 -192 0
-192 -200 0
-178 -192 0
-75 -192 0
-59 -162 0
-162 -200 0
-162 -178 0
-75 -162 0
-59 -200 0
-59 -178 0
-59 -75 0
-178 -200 0
-75 -200 0
-75 -178 0
-38 -74 0
-38 -152 0
-38 -99 0
-29 -38 0
-38 -192 0
-74 -152 0
-74 -99 0
-29 -74 0
-74 -192 0
-99 -152 0
-29 -152 0
-152 -192 0
-29 -99 0
-99 -192 0
-29 -192 0
-35 -108 0
-108 -139 0
-108 -175 0
-108 -182 0
-108 -162 0
-35 -139 0
-35 -175 0
-35 -182 0
-35 -162 0
-139 -175 0
-139 -182 0
-139 -162 0
-175 -182 0
-162 -175 0
-162 -182 0
-48 -63 0
-63 -201 0
-63 -94 0
-63 -186 0
-59 -63 0
-48 -201 0
-48 -94 0
-48 -186 0
-48 -59 0
-94 -201 0
-186 -201 0
-59 -201 0
-94 -186 0
-59 -94 0
-59 -186 0
-34 -37 0
-32 -37 0
-37 -156 0
-37 -187 0
-37 -200 0
-32 -34 0
-34 -156 0
-34 -187 0
-34 -200 0
-32 -156 0
-32 -187 0
-32 -200 0
-156 -187 0
-156 -200 0
-187 -200 0
-33 -58 0
-31 -58 0
-30 -58 0
-58 -124 0
-58 -178 0
-31 -33 0
-30 -33 0
-33 -124 0
-33 -178 0
-30 -31 0
-31 -124 0
-31 -178 0
-30 -124 0
-30 -178 0
-124 -178 0
-36 -193 0
-36 -168 0
-36 -41 0
-36 -129 0
-36 -75 0
-168 -193 0
-41 -193 0
-129 -193 0
-75 -193 0
-41 -168 0
-129 -168 0
-75 -168 0
-41 -129 0
-41 -75 0
-75 -129 0
-106 -113 0
-113 -142 0
-28 -113 0
-54 -113 0
-113 -118 0
-106 -142 0
-28 -106 0
-54 -106 0
-106 -118 0
-28 -142 0
-54 -142 0
-118 -142 0
-28 -54 0
-28 -118 0
-54 -118 0
-26 -133 0
-126 -133 0
-70 -133 0
-72 -133 0
-24 -133 0
-26 -126 0
-26 -70 0
-26 -72 0
-24 -26 0
-70 -126 0
-72 -126 0
-24 -126 0
-70 -72 0
-24 -70 0
-24 -72 0
-23 -91 0
-23 -116 0
-23 -61 0
-23 -83 0
-23 -57 0
-91 -116 0
-61 -91 0
-83 -91 0
-57 -91 0
-61 -116 0
-83 -116 0
-57 -116 0
-61 -83 0
-57 -61 0
-57 -83 0
-51 -78 0
-78 -136 0
-78 -103 0
-78 -122 0
-78 -127 0
-51 -136 0
-51 -103 0
-51 -122 0
-51 -127 0
-103 -136 0
-122 -136 0
-127 -136 0
-103 -122 0
-103 -127 0
-122 -127 0
-49 -172 0
-22 -172 0
-21 -172 0
-132 -172 0
-20 -172 0
-22 -49 0
-21 -49 0
-49 -132 0
-20 -49 0
-21 -22 0
-22 -132 0
-20 -22 0
-21 -132 0
-20 -21 0
-20 -132 0
-18 -19 0
-19 -180 0
-19 -100 0
-19 -102 0
-19 -148 0
-18 -180 0
-18 -100 0
-18 -102 0
-18 -148 0
-100 -180 0
-102 -180 0
-148 -180 0
-100 -102 0
-100 -148 0
-102 -148 0
-113 -133 0
-23 -113 0
-78 -113 0
-113 -172 0
-19 -113 0
-23 -133 0
-78 -133 0
-133 -172 0
-19 -133 0
-23 -78 0
-23 -172 0
-19 -23 0
-78 -172 0
-19 -78 0
-19 -172 0
-26 -106 0
-91 -106 0
-51 -106 0
-49 -106 0
-18 -106 0
-26 -91 0
-26 -51 0
-26 -49 0
-18 -26 0
-51 -91 0
-49 -91 0
-18 -91 0
-49 -51 0
-18 -51 0
-18 -49 0
-126 -142 0
-116 -142 0
-136 -142 0
-22 -142 0
-142 -180 0
-116 -126 0
-126 -136 0
-22 -126 0
-126 -180 0
-116 -136 0
-22 -116 0
-116 -180 0
-22 -136 0
-136 -180 0
-22 -180 0
-28 -70 0
-28 -61 0
-28 -103 0
-21 -28 0
-28 -100 0
-61 -70 0
-70 -103 0
-21 -70 0
-70 -100 0
-61 -103 0
-21 -61 0
-61 -100 0
-21 -103 0
-100 -103 0
-21 -100 0
-54 -72 0
-54 -83 0
-54 -122 0
-54 -132 0
-54 -102 0
-72 -83 0
-72 -122 0
-72 -132 0
-72 -102 0
-83 -122 0
-83 -132 0
-83 -102 0
-122 -132 0
-102 -122 0
-102 -132 0
-24 -118 0
-57 -118 0
-118 -127 0
-20 -118 0
-118 -148 0
-24 -57 0
-24 -127 0
-20 -24 0
-24 -148 0
-57 -127 0
-20 -57 0
-57 -148 0
-20 -127 0
-127 -148 0
-20 -148 0
-96 -110 0
-17 -96 0
-88 -96 0
-16 -96 0
-17 -110 0
-88 -110 0
-16 -110 0
-17 -88 0
-16 -17 0
-16 -88 0
-15 -80 0
-15 -73 0
-15 -166 0
-15 -81 0
-73 -80 0
-80 -166 0
-80 -81 0
-73 -166 0
-73 -81 0
-81 -166 0
-14 -68 0
-68 -147 0
-68 -119 0
-68 -195 0
-14 -147 0
-14 -119 0
-14 -195 0
-119 -147 0
-147 -195 0
-119 -195 0
-104 -107 0
-104 -141 0
-65 -104 0
-27 -104 0
-107 -141 0
-65 -107 0
-27 -107 0
-65 -141 0
-27 -141 0
-27 -65 0
-25 -153 0
-125 -153 0
-145 -153 0
-69 -153 0
-25 -125 0
-25 -145 0
-25 -69 0
-125 -145 0
-69 -125 0
-69 -145 0
-15 -96 0
-68 -96 0
-96 -104 0
-96 -153 0
-15 -68 0
-15 -104 0
-15 -153 0
-68 -104 0
-68 -153 0
-104 -153 0
-80 -110 0
-14 -110 0
-107 -110 0
-25 -110 0
-14 -80 0
-80 -107 0
-25 -80 0
-14 -107 0
-14 -25 0
-25 -107 0
-17 -73 0
-17 -147 0
-17 -141 0
-17 -125 0
-73 -147 0
-73 -141 0
-73 -125 0
-141 -147 0
-125 -147 0
-125 -141 0
-88 -166 0
-88 -119 0
-65 -88 0
-88 -145 0
-119 -166 0
-65 -166 0
-145 -166 0
-65 -119 0
-119 -145 0
-65 -145 0
-16 -81 0
-16 -195 0
-16 -27 0
-16 -69 0
-81 -195 0
-27 -81 0
-69 -81 0
-27 -195 0
-69 -195 0
-27 -69 0
-77 -89 0
-89 -130 0
-13 -89 0
-77 -130 0
-13 -77 0
-13 -130 0
-66 -203 0
-12 -203 0
-53 -203 0
-12 -66 0
-53 -66 0
-12 -53 0
-11 -161 0
-10 -161 0
-9 -161 0
-10 -11 0
-9 -11 0
-9 -10 0
-8 -97 0
-8 -62 0
-8 -109 0
-62 -97 0
-97 -109 0
-62 -109 0
-89 -203 0
-89 -161 0
-8 -89 0
-161 -203 0
-8 -203 0
-8 -161 0
-66 -77 0
-11 -77 0
-77 -97 0
-11 -66 0
-66 -97 0
-11 -97 0
-12 -130 0
-10 -130 0
-62 -130 0
-10 -12 0
-12 -62 0
-10 -62 0
-13 -53 0
-9 -13 0
-13 -109 0
-9 -53 0
-53 -109 0
-9 -109 0
-7 -137 0
-137 -140 0
-87 -137 0
-7 -140 0
-7 -87 0
-87 -140 0
-5 -92 0
-5 -173 0
-5 -111 0
-92 -173 0
-92 -111 0
-111 -173 0
-67 -158 0
-67 -164 0
-67 -171 0
-158 -164 0
-158 -171 0
-164 -171 0
-3 -4 0
-4 -71 0
-4 -189 0
-3 -71 0
-3 -189 0
-71 -189 0
-5 -137 0
-67 -137 0
-4 -137 0
-5 -67 0
-4 -5 0
-4 -67 0
-7 -92 0
-7 -158 0
-3 -7 0
-92 -158 0
-3 -92 0
-3 -158 0
-140 -173 0
-140 -164 0
-71 -140 0
-164 -173 0
-71 -173 0
-71 -164 0
-87 -111 0
-87 -171 0
-87 -189 0
-111 -171 0
-111 -189 0
-171 -189 0
-84 -117 0
-56 -117 0
-82 -117 0
-56 -84 0
-82 -84 0
-56 -82 0
-123 -134 0
-128 -134 0
-2 -134 0
-123 -128 0
-2 -123 0
-2 -128 0
-101 -179 0
-149 -179 0
-1 -179 0
-101 -149 0
-1 -101 0
-1 -149 0
-6 -194 0
-138 -194 0
-194 -202 0
-6 -138 0
-6 -202 0
-138 -202 0
-117 -134 0
-117 -179 0
-117 -194 0
-134 -179 0
-134 -194 0
-179 -194 0
-84 -123 0
-84 -101 0
-6 -84 0
-101 -123 0
-6 -123 0
-6 -101 0
-56 -128 0
-56 -149 0
-56 -138 0
-128 -149 0
-128 -138 0
-138 -149 0
-2 -82 0
-1 -82 0
-82 -202 0
-1 -2 0
-2 -202 0
-1 -202 0
